c This is QMaxSAT 2017 based on 14.07
c This is Glucose 3.0
c This is MiniSat 2.2.0
c WARNING: for repeatability, setting FPU to use double precision
c card = mrwto, comp = 0, pmodel = 0, narr = 8, mct = 42, verb = 0
cr firstCPXsol 0 0 0
c top = 127531
c |  Number of variables:    4802                                             |
c |  Number of clauses:      203950                                           |
c |  Weight of hard clauses: 127531                                           |
c |  Number of soft clauses: 18368                                            |
c |  Number of unit soft clauses: 0                                           |
c |  Maximum Cardinality (by unit): 1431952      (0           )               |
c last restart ## conflicts  :  0 294 
o 445 | cpuTime 0.044326 s
c Sum of weights = 178994
c A number of soft clauses remained = 2296
c MRWTO encoding for Pseudo-Boolean Constraints
c sizeMax=445
c No.0 Divisor=8	generated by pow1
c No.1 Divisor=8	generated by pow1
c No.2 Divisor=8	generated by pow1
c p0= 8	p1= 8	p2= 8	
c number of digits = 4
c linkingVar[0].size = 8, linkingVar[1].size = 8, linkingVar[2].size = 7, linkingVar[3].size = 1, 
c Pseudo-Boolean Constraints: 39060 variables and 262598 clauses
c Sum of weights = 178994
c A number of soft clauses remained = 2296
c MRWTO encoding for Pseudo-Boolean Constraints
c sizeMax=445
c No.0 Divisor=8	generated by pow1
c No.1 Divisor=8	generated by pow1
c No.2 Divisor=8	generated by pow1
c p0= 8	p1= 8	p2= 8	
c number of digits = 4
c linkingVar[0].size = 8, linkingVar[1].size = 8, linkingVar[2].size = 7, linkingVar[3].size = 1, 
c Pseudo-Boolean Constraints: 39060 variables and 262598 clauses
c Sum of weights = 178994
c A number of soft clauses remained = 2296
c MRWTO encoding for Pseudo-Boolean Constraints
c sizeMax=445
c No.0 Divisor=8	generated by pow1
c No.1 Divisor=8	generated by pow1
c No.2 Divisor=8	generated by pow1
c p0= 8	p1= 8	p2= 8	
c number of digits = 4
c linkingVar[0].size = 8, linkingVar[1].size = 8, linkingVar[2].size = 7, linkingVar[3].size = 1, 
c Pseudo-Boolean Constraints: 39060 variables and 262598 clauses
c Sum of weights = 178994
c A number of soft clauses remained = 2296
c MRWTO encoding for Pseudo-Boolean Constraints
c sizeMax=445
c No.0 Divisor=8	generated by pow1
c No.1 Divisor=8	generated by pow1
c No.2 Divisor=8	generated by pow1
c p0= 8	p1= 8	p2= 8	
c number of digits = 4
c linkingVar[0].size = 8, linkingVar[1].size = 8, linkingVar[2].size = 7, linkingVar[3].size = 1, 
c Pseudo-Boolean Constraints: 39060 variables and 262598 clauses
c Sum of weights = 178994
c A number of soft clauses remained = 2296
c MRWTO encoding for Pseudo-Boolean Constraints
c sizeMax=445
c No.0 Divisor=8	generated by pow1
c No.1 Divisor=8	generated by pow1
c No.2 Divisor=8	generated by pow1
c p0= 8	p1= 8	p2= 8	
c number of digits = 4
c linkingVar[0].size = 8, linkingVar[1].size = 8, linkingVar[2].size = 7, linkingVar[3].size = 1, 
c Pseudo-Boolean Constraints: 39060 variables and 262598 clauses
c Sum of weights = 178994
c A number of soft clauses remained = 2296
c MRWTO encoding for Pseudo-Boolean Constraints
c sizeMax=445
c No.0 Divisor=8	generated by pow1
c No.1 Divisor=8	generated by pow1
c No.2 Divisor=8	generated by pow1
c p0= 8	p1= 8	p2= 8	
c number of digits = 4
c linkingVar[0].size = 8, linkingVar[1].size = 8, linkingVar[2].size = 7, linkingVar[3].size = 1, 
c Pseudo-Boolean Constraints: 39060 variables and 262598 clauses
c Sum of weights = 178994
c A number of soft clauses remained = 2296
c MRWTO encoding for Pseudo-Boolean Constraints
c sizeMax=445
c No.0 Divisor=8	generated by pow1
c No.1 Divisor=8	generated by pow1
c No.2 Divisor=8	generated by pow1
c p0= 8	p1= 8	p2= 8	
c number of digits = 4
c linkingVar[0].size = 8, linkingVar[1].size = 8, linkingVar[2].size = 7, linkingVar[3].size = 1, 
c Pseudo-Boolean Constraints: 39060 variables and 262598 clauses
c Sum of weights = 178994
c A number of soft clauses remained = 2296
c MRWTO encoding for Pseudo-Boolean Constraints
c sizeMax=445
c No.0 Divisor=8	generated by pow1
c No.1 Divisor=8	generated by pow1
c No.2 Divisor=8	generated by pow1
c p0= 8	p1= 8	p2= 8	
c number of digits = 4
c linkingVar[0].size = 8, linkingVar[1].size = 8, linkingVar[2].size = 7, linkingVar[3].size = 1, 
c Pseudo-Boolean Constraints: 39060 variables and 262598 clauses
c last restart ## conflicts  :  434 3007 
o 440 | cpuTime 96.5668 s
s UNKNOWN
c Search is stopped by a limit (maybe time-limit)
cr positiVarArr: [ | 12(1->5) | 64(1->8) | 147(1->42) | 157(1->3) | 244(1->41) | 273(1->21) | 325(1->24) | 386(1->36) | 428(2->29) | 452(3->4) | 537(4->40) | 584(5->38) | 592(6->1) | 650(7->6) | 702(8->9) | 737(9->1) | 805(10->14) | 847(11->7) | 900(12->11) | 954(13->16) | 1002(14->15) | 1059(15->23) | 1103(16->18) | 1156(17->22) | 1200(18->17) | 1252(19->20) | 1314(20->33) | 1343(21->13) | 1379(22->1) | 1427(23->1) | 1508(24->31) | 1561(25->35) | 1600(26->25) | 1650(27->26) | 1700(28->27) | 1718(29->1) | 1803(30->32) | 1850(31->30) | 1903(32->34) | 1916(33->1) | 1995(34->28) | 2055(35->39) | 2077(36->12) | 2133(37->19) | 2200(38->37) | 2213(39->1) | 2255(40->1) | 2312(41->2) | 2369(42->10) | ]
cr the 1-th chain: [ 1->5->38->37->19->20->33->1 ] (#non-depot=6) {#cumul.=7}
cr the 2-th chain: [ 1->8->9->1 ] (#non-depot=2) {#cumul.=9}
cr the 3-th chain: [ 1->42->10->14->15->23->1 ] (#non-depot=5) {#cumul.=14}
cr the 4-th chain: [ 1->3->4->40->1 ] (#non-depot=3) {#cumul.=17}
cr the 5-th chain: [ 1->41->2->29->1 ] (#non-depot=3) {#cumul.=20}
cr the 6-th chain: [ 1->21->13->16->18->17->22->1 ] (#non-depot=6) {#cumul.=26}
cr the 7-th chain: [ 1->24->31->30->32->34->28->27->26->25->35->39->1 ] (#non-depot=11) {#cumul.=37}
cr the 8-th chain: [ 1->36->12->11->7->6->1 ] (#non-depot=5) {#cumul.=42}
c Latest Answer = 0 by 2 loops
c restarts              : 64399
c conflicts             : 18295309       (5091 /sec)
c decisions             : 92093686       (0.00 % random) (25624 /sec)
c propagations          : 34355556127    (9559174 /sec)
c conflict literals     : 1733099875     (35.51 % deleted)
c Memory used           : 690.00 MB
c CPU time              : 3593.99 s
